94 81 54 96 93 
47 14 12 11 9 10 13 17 60 
65 83 59 75 97 74 58 77 25 
64 23 21 18 19 49 22 20 66 56 91 80 
69 98 53 
61 44 41 38 40 35 37 43 68 
92 95 63 33 28 27 29 31 30 62 67 85 76 51 84 50 34 32 26 89 48 24 
5 45 2 55 
82 52 15 16 87 86 57 99 90 
42 39 36 72 71 88 73 78 79 7 6 8 46 3 1 4 100 70 
